c preprocessed version of Tutte12Cage, 126 vertices, 189 edges
p td 126 189
0 1
0 30
0 35
1 38
1 47
2 12
2 13
3 4
4 5
4 27
5 6
6 7
6 18
7 8
8 9
9 10
10 11
11 12
11 30
12 14
13 24
13 52
14 15
15 16
16 17
17 18
18 19
19 20
20 21
21 22
22 23
23 25
24 31
24 92
25 26
26 27
27 28
28 29
29 30
31 32
31 43
32 23
32 33
33 34
33 109
34 35
34 99
35 36
36 37
36 55
37 39
37 67
38 19
38 49
39 40
40 41
40 113
41 17
41 42
42 43
42 80
43 44
44 45
44 58
45 46
45 125
46 47
46 105
47 48
48 50
48 72
49 60
49 94
50 51
50 112
51 52
51 63
52 53
53 5
53 54
54 55
54 119
55 56
56 57
56 75
57 58
57 87
58 59
59 9
59 61
60 71
60 121
61 62
62 63
62 100
63 64
64 65
64 78
65 21
65 66
66 67
66 124
67 68
68 69
68 91
69 8
69 70
70 72
70 83
71 61
71 82
72 73
73 25
73 74
74 15
74 75
75 76
76 77
76 95
77 78
77 107
78 79
79 29
79 80
80 81
81 83
81 120
82 26
82 93
83 84
84 85
84 98
85 86
86 20
86 87
87 88
88 89
88 111
89 28
89 90
90 91
90 102
91 92
92 94
93 39
93 104
94 95
95 96
96 97
96 114
97 3
97 98
98 99
99 100
100 101
101 16
101 102
102 103
103 105
103 118
104 106
104 115
105 106
106 107
107 108
108 7
108 109
109 110
110 111
110 122
111 112
112 113
113 114
114 116
115 2
115 85
116 10
116 117
117 22
117 118
118 119
119 120
120 121
121 122
122 123
123 14
123 124
124 125
125 3
